data;

param num_top:=4;

#nodes and edges of the physical network
param n := 10;

set E := (1,2) (1,3) (1,7) (2,4) (2,7) (3,5) (4,8) (5,6) (5,7) (6,7) (6,9) (7,8) (7,9) (8,10) (9,10) ;

#nodes and edges of the virtual networks
set Nl[1] := 6 7 3 1 8 ;
set Nl[2] := 10 1 6 3 7 ;
set Nl[3] := 6 9 1 8 3 ;
set Nl[4] := 3 1 9 7 8 ;

set El[1] := (6,7) (3,7) (1,3) (1,8) (6,8) (7,8) (3,8) (1,7) (1,6) (3,6) ;
set El[2] := (1,10) (1,6) (3,6) (3,7) (7,10) (3,10) (1,3) (1,7) (6,10) (6,7) ;
set El[3] := (6,9) (1,9) (1,8) (3,8) (3,6) (1,3) (1,6) (3,9) (8,9) (6,8) ;
set El[4] := (1,3) (1,9) (7,9) (7,8) (3,8) (3,9) (1,8) (1,7) (3,7) (8,9) ;
